1 33 18 21 68 12 51 10 58 19 63 17 47 36 13 65 37 64 62 35 32 71 99 25 54 82 28 70 24 76 59 67 22 20 88 4 69 87 43 9 45 27 78 6 96 100 23 42 77 60 83 53 29 56 3 49 97 7 44 48 16 26 8 39 52 73 34 38 81 66 95 2 50 94 85 79 46 89 5 90 93 75 74 92 57 84 91 72 55 11 61 86 14 41 31 30 80 98 15 40
